p cnf 14 28
14 12 -9 0
14 -12 3 0
14 9 4 0
-14 9 -2 0
-14 8 -3 0
14 7 4 0
14 -6 -5 0
-13 -11 10 0
13 10 -1 0
-13 -5 1 0
-12 -8 7 0
-12 -5 -3 0
12 -5 -1 0
-12 -5 1 0
-11 -10 8 0
-11 9 4 0
-11 9 -1 0
-11 -4 3 0
10 -9 -5 0
-10 -8 -5 0
10 -5 4 0
10 -5 2 0
10 -5 -1 0
10 3 -2 0
10 -2 1 0
-7 -6 4 0
-6 -2 -1 0
5 3 -1 0
